(set-info :Origin "This instance was generated by: BanditFuzz-- an RL fuzzer for SMT solvers" )
(set-info :Author "Joe Scott, Fed Mora, Vijay Ganesh" )
(set-info :Contact "Joe Scott, joseph.scott@uwaterloo.ca")
(set-logic QF_BV)
(declare-const bool_0 Bool)
(declare-const bool_1 Bool)
(declare-const bool_2 Bool)
(declare-const bool_3 Bool)
(declare-const bool_4 Bool)
(declare-const bv_0 (_ BitVec 32))
(declare-const bv_1 (_ BitVec 32))
(declare-const bv_2 (_ BitVec 32))
(declare-const bv_3 (_ BitVec 32))
(declare-const bv_4 (_ BitVec 32))
(assert (bvule (bvudiv (bvnand bv_2 bv_3) (bvsrem #xed7f6e65  #x8fe9042e )) (bvurem (bvshl bv_4 #x36b18542 ) (bvnor #x1af0968e  bv_0))))
(assert (and (and (xor false false) (bvsle bv_4 bv_4)) (bvsge (bvudiv #xd0074709  #xd9c14525 ) (bvsub #x2d7586a5  bv_3))))
(assert (not (bvslt (bvlshr bv_2 bv_4) (bvudiv bv_2 #x9b25d1da ))))
(assert (bvsge (bvsrem (bvadd bv_2 bv_2) (bvxor #x1964a8f8  bv_1)) (bvnand (bvnand #xf7e96241  bv_3) (bvand #xf47ab337  #x06668c01 ))))
(assert (bvslt (bvnor (bvsrem #x8c811740  #xc4d64abe ) (bvxnor #x553c2a5b  #x109c5fb3 )) (bvsdiv (bvsrem bv_4 #xb283f9df ) (bvashr bv_3 bv_1))))
(check-sat)
(exit)
